p tw 172 408
1 2
1 3
1 8
2 3
3 4
3 5
4 5
5 6
5 8
5 9
5 20
5 21
5 54
5 112
6 7
6 145
7 8
7 126
7 145
8 9
8 54
8 84
8 112
8 126
9 10
9 22
9 24
9 54
9 84
9 147
10 11
10 12
10 13
10 24
10 25
10 54
10 84
10 94
11 12
11 142
12 13
12 103
12 104
12 140
12 142
12 150
13 14
13 47
13 66
13 89
13 90
13 91
13 92
13 94
13 103
13 105
13 107
13 108
13 150
14 15
14 18
14 46
14 47
14 66
14 67
14 90
14 103
14 108
14 115
14 137
14 154
15 16
15 137
16 17
16 136
17 18
17 136
18 47
19 20
19 151
19 153
20 21
20 22
20 153
21 22
22 23
22 24
22 25
22 115
22 170
23 24
24 25
24 93
24 94
24 95
24 96
24 147
24 171
25 26
25 65
25 66
25 83
25 93
25 94
25 95
25 120
25 144
25 170
26 27
26 65
26 66
26 79
26 83
26 100
26 115
27 28
27 65
27 66
27 82
27 83
27 115
27 166
28 29
28 30
28 31
28 32
28 33
28 36
28 38
28 66
28 72
28 73
28 75
28 78
28 79
28 80
28 81
28 83
28 85
28 87
28 100
28 101
28 102
28 117
28 133
28 146
29 30
29 102
30 31
31 32
32 33
32 36
32 37
32 38
33 34
33 35
33 80
33 101
33 143
34 35
34 143
36 37
36 38
36 69
36 71
36 72
37 38
38 39
38 59
38 139
38 163
39 40
39 59
39 60
39 61
39 118
40 41
40 42
40 50
40 51
40 52
40 53
40 61
40 62
40 68
40 118
41 42
41 53
41 68
42 43
43 44
43 45
43 52
43 53
43 67
43 110
43 111
43 141
43 155
43 156
43 158
43 161
44 45
44 64
45 46
45 64
45 66
45 115
45 119
45 161
46 66
46 67
46 119
46 154
46 161
47 48
47 88
47 90
47 106
47 107
47 113
47 114
47 115
48 49
48 113
48 114
48 168
48 169
49 167
49 168
50 51
50 52
51 52
51 60
51 62
51 165
52 53
52 62
52 63
52 157
52 160
52 165
53 61
53 111
53 157
54 84
55 56
55 122
56 57
56 122
57 58
57 59
57 69
58 59
59 63
60 61
60 62
61 62
62 63
65 66
65 115
65 120
66 67
66 83
66 102
66 108
66 115
66 116
66 120
66 161
66 166
67 109
67 111
67 141
68 118
69 70
69 71
70 71
73 74
73 75
73 79
73 80
73 81
73 82
73 87
73 101
73 102
74 75
75 76
75 79
75 85
75 100
75 125
75 135
76 77
76 135
77 97
77 98
77 124
77 125
77 135
77 148
78 79
78 121
78 123
78 132
78 148
78 149
78 164
79 80
79 81
79 85
79 86
79 102
79 115
79 132
79 138
80 81
80 100
80 102
80 138
81 100
81 138
82 83
83 102
83 115
83 146
85 86
85 101
86 100
88 89
88 106
89 90
90 103
90 105
90 106
90 107
90 108
90 150
91 92
92 93
93 94
93 95
93 144
94 95
96 97
96 171
96 172
97 172
98 99
98 125
99 100
99 121
99 148
99 149
100 101
100 123
100 132
101 132
101 162
102 133
102 146
103 104
103 140
103 150
104 140
106 107
107 108
108 116
109 110
109 161
110 111
111 141
113 114
113 169
115 116
115 161
115 166
117 118
117 133
117 134
118 134
121 123
124 125
127 128
127 129
128 129
129 130
129 131
130 131
131 132
132 162
133 139
133 163
139 163
141 161
148 149
148 164
149 151
149 152
151 152
155 156
155 158
156 157
157 159
157 160
159 160
167 168
